c "271836.clq"
p edge 196 2880
e 1 17
e 1 18
e 1 19
e 1 20
e 1 21
e 1 22
e 1 23
e 1 24
e 1 25
e 1 26
e 1 28
e 1 30
e 1 32
e 1 33
e 1 34
e 1 38
e 1 40
e 1 41
e 1 42
e 1 43
e 1 46
e 1 47
e 1 48
e 1 49
e 1 53
e 1 54
e 1 55
e 1 56
e 1 57
e 1 59
e 1 61
e 1 62
e 1 64
e 1 65
e 1 67
e 1 69
e 1 70
e 1 72
e 1 73
e 1 78
e 1 81
e 1 84
e 1 87
e 1 94
e 1 97
e 1 105
e 1 106
e 1 110
e 1 111
e 1 112
e 1 114
e 1 115
e 1 118
e 1 119
e 1 127
e 1 130
e 1 132
e 1 133
e 1 142
e 1 153
e 1 166
e 1 168
e 1 171
e 1 173
e 1 176
e 1 177
e 1 182
e 1 187
e 1 192
e 1 194
e 1 195
e 2 17
e 2 18
e 2 19
e 2 20
e 2 21
e 2 23
e 2 26
e 2 27
e 2 28
e 2 32
e 2 35
e 2 37
e 2 38
e 2 49
e 2 55
e 2 66
e 2 74
e 2 77
e 2 86
e 2 88
e 2 94
e 2 97
e 2 100
e 2 109
e 2 110
e 2 117
e 2 130
e 2 131
e 2 140
e 2 163
e 2 172
e 2 189
e 3 17
e 3 18
e 3 19
e 3 20
e 3 23
e 3 24
e 3 25
e 3 26
e 3 27
e 3 28
e 3 29
e 3 30
e 3 31
e 3 33
e 3 37
e 3 38
e 3 43
e 3 46
e 3 52
e 3 58
e 3 59
e 3 60
e 3 62
e 3 64
e 3 65
e 3 67
e 3 79
e 3 80
e 3 81
e 3 89
e 3 92
e 3 93
e 3 95
e 3 100
e 3 113
e 3 127
e 3 133
e 3 149
e 3 154
e 3 156
e 3 160
e 3 164
e 3 166
e 3 167
e 3 174
e 3 178
e 3 180
e 3 184
e 3 193
e 4 17
e 4 20
e 4 22
e 4 42
e 4 55
e 4 67
e 4 90
e 4 113
e 4 121
e 5 17
e 5 18
e 5 19
e 5 20
e 5 21
e 5 22
e 5 24
e 5 25
e 5 26
e 5 27
e 5 28
e 5 29
e 5 30
e 5 31
e 5 36
e 5 38
e 5 41
e 5 42
e 5 45
e 5 46
e 5 47
e 5 48
e 5 49
e 5 52
e 5 54
e 5 55
e 5 56
e 5 58
e 5 62
e 5 67
e 5 68
e 5 70
e 5 76
e 5 77
e 5 82
e 5 86
e 5 92
e 5 95
e 5 96
e 5 97
e 5 101
e 5 105
e 5 108
e 5 109
e 5 110
e 5 111
e 5 114
e 5 116
e 5 123
e 5 126
e 5 130
e 5 131
e 5 133
e 5 138
e 5 144
e 5 155
e 5 156
e 5 165
e 5 168
e 5 170
e 5 182
e 5 183
e 5 193
e 5 195
e 6 17
e 6 18
e 6 19
e 6 20
e 6 21
e 6 22
e 6 24
e 6 25
e 6 28
e 6 29
e 6 30
e 6 33
e 6 36
e 6 45
e 6 54
e 6 60
e 6 66
e 6 71
e 6 81
e 6 82
e 6 84
e 6 90
e 6 91
e 6 96
e 6 98
e 6 119
e 6 121
e 6 124
e 6 125
e 6 134
e 6 153
e 6 174
e 6 183
e 6 192
e 6 196
e 7 17
e 7 18
e 7 19
e 7 21
e 7 23
e 7 26
e 7 30
e 7 31
e 7 33
e 7 35
e 7 42
e 7 45
e 7 57
e 7 72
e 7 77
e 7 85
e 7 107
e 7 128
e 7 194
e 7 196
e 8 17
e 8 18
e 8 19
e 8 20
e 8 21
e 8 22
e 8 25
e 8 26
e 8 28
e 8 32
e 8 35
e 8 36
e 8 37
e 8 39
e 8 41
e 8 44
e 8 46
e 8 50
e 8 52
e 8 53
e 8 55
e 8 57
e 8 60
e 8 64
e 8 66
e 8 67
e 8 71
e 8 73
e 8 75
e 8 79
e 8 83
e 8 89
e 8 93
e 8 98
e 8 104
e 8 127
e 8 128
e 8 130
e 8 179
e 8 181
e 8 184
e 9 17
e 9 18
e 9 20
e 9 23
e 9 24
e 9 28
e 9 35
e 9 37
e 9 40
e 9 43
e 9 46
e 9 47
e 9 50
e 9 54
e 9 56
e 9 62
e 9 69
e 9 72
e 9 73
e 9 82
e 9 83
e 9 93
e 9 95
e 9 98
e 9 108
e 9 113
e 9 125
e 9 126
e 9 129
e 9 130
e 9 137
e 9 142
e 9 144
e 9 152
e 9 156
e 9 157
e 9 160
e 9 162
e 9 169
e 9 174
e 9 185
e 9 189
e 10 17
e 10 18
e 10 19
e 10 20
e 10 21
e 10 23
e 10 35
e 10 37
e 10 39
e 10 49
e 10 56
e 10 62
e 10 63
e 10 70
e 10 71
e 10 72
e 10 78
e 10 79
e 10 84
e 10 89
e 10 95
e 10 101
e 10 129
e 10 137
e 10 147
e 10 165
e 10 168
e 10 169
e 10 170
e 10 179
e 10 190
e 11 17
e 11 18
e 11 19
e 11 20
e 11 22
e 11 23
e 11 24
e 11 25
e 11 26
e 11 27
e 11 28
e 11 33
e 11 36
e 11 40
e 11 41
e 11 46
e 11 60
e 11 73
e 11 82
e 11 83
e 11 93
e 11 100
e 11 137
e 11 142
e 11 144
e 11 149
e 11 151
e 11 161
e 11 162
e 11 163
e 11 171
e 11 172
e 11 181
e 11 187
e 11 192
e 11 196
e 12 17
e 12 18
e 12 19
e 12 21
e 12 22
e 12 27
e 12 29
e 12 32
e 12 34
e 12 36
e 12 42
e 12 58
e 12 59
e 12 68
e 12 69
e 12 87
e 12 88
e 12 90
e 12 95
e 12 105
e 12 120
e 12 154
e 12 161
e 12 162
e 13 17
e 13 18
e 13 19
e 13 20
e 13 21
e 13 22
e 13 25
e 13 26
e 13 34
e 13 40
e 13 42
e 13 45
e 13 56
e 13 57
e 13 58
e 13 63
e 13 75
e 13 86
e 13 92
e 13 97
e 13 98
e 13 102
e 13 103
e 13 121
e 13 125
e 13 135
e 13 137
e 13 139
e 13 142
e 13 152
e 13 185
e 14 17
e 14 18
e 14 19
e 14 21
e 14 22
e 14 23
e 14 24
e 14 33
e 14 37
e 14 40
e 14 66
e 14 81
e 14 94
e 14 104
e 14 106
e 14 124
e 14 148
e 14 190
e 15 17
e 15 18
e 15 19
e 15 20
e 15 21
e 15 22
e 15 23
e 15 24
e 15 25
e 15 27
e 15 29
e 15 31
e 15 33
e 15 34
e 15 35
e 15 37
e 15 39
e 15 40
e 15 43
e 15 47
e 15 50
e 15 52
e 15 55
e 15 56
e 15 57
e 15 62
e 15 63
e 15 68
e 15 70
e 15 74
e 15 81
e 15 87
e 15 89
e 15 92
e 15 106
e 15 108
e 15 116
e 15 121
e 15 123
e 15 125
e 15 138
e 15 140
e 15 148
e 15 153
e 15 164
e 15 180
e 15 190
e 15 191
e 15 193
e 15 195
e 16 17
e 16 18
e 16 19
e 16 20
e 16 21
e 16 22
e 16 23
e 16 24
e 16 26
e 16 27
e 16 29
e 16 31
e 16 34
e 16 43
e 16 65
e 16 71
e 16 75
e 16 78
e 16 82
e 16 100
e 16 107
e 16 117
e 16 121
e 16 145
e 16 146
e 16 153
e 16 155
e 16 158
e 16 177
e 16 189
e 17 18
e 17 19
e 17 20
e 17 21
e 17 22
e 17 23
e 17 24
e 17 25
e 17 26
e 17 27
e 17 29
e 17 30
e 17 31
e 17 32
e 17 33
e 17 35
e 17 36
e 17 37
e 17 38
e 17 39
e 17 40
e 17 41
e 17 43
e 17 44
e 17 45
e 17 46
e 17 48
e 17 50
e 17 51
e 17 54
e 17 56
e 17 58
e 17 59
e 17 60
e 17 61
e 17 63
e 17 65
e 17 66
e 17 67
e 17 74
e 17 76
e 17 77
e 17 79
e 17 85
e 17 87
e 17 88
e 17 91
e 17 97
e 17 98
e 17 100
e 17 101
e 17 108
e 17 111
e 17 114
e 17 115
e 17 116
e 17 117
e 17 118
e 17 120
e 17 122
e 17 125
e 17 127
e 17 133
e 17 141
e 17 147
e 17 149
e 17 151
e 17 152
e 17 156
e 17 157
e 17 158
e 17 160
e 17 165
e 17 167
e 17 168
e 17 177
e 17 178
e 17 179
e 17 180
e 17 181
e 17 183
e 17 188
e 17 190
e 17 192
e 17 194
e 17 195
e 18 19
e 18 20
e 18 21
e 18 22
e 18 23
e 18 24
e 18 25
e 18 26
e 18 27
e 18 28
e 18 29
e 18 30
e 18 33
e 18 34
e 18 35
e 18 38
e 18 40
e 18 42
e 18 47
e 18 50
e 18 51
e 18 52
e 18 53
e 18 54
e 18 56
e 18 60
e 18 63
e 18 65
e 18 68
e 18 73
e 18 84
e 18 96
e 18 106
e 18 108
e 18 109
e 18 111
e 18 114
e 18 120
e 18 121
e 18 127
e 18 131
e 18 134
e 18 143
e 18 148
e 18 153
e 18 154
e 18 159
e 18 165
e 18 168
e 18 170
e 18 171
e 18 176
e 18 178
e 18 182
e 18 183
e 18 186
e 18 193
e 19 20
e 19 21
e 19 22
e 19 23
e 19 24
e 19 25
e 19 26
e 19 27
e 19 29
e 19 30
e 19 31
e 19 34
e 19 35
e 19 36
e 19 38
e 19 39
e 19 40
e 19 41
e 19 42
e 19 43
e 19 44
e 19 45
e 19 47
e 19 48
e 19 49
e 19 50
e 19 51
e 19 52
e 19 53
e 19 55
e 19 57
e 19 59
e 19 64
e 19 68
e 19 69
e 19 71
e 19 78
e 19 83
e 19 86
e 19 99
e 19 101
e 19 102
e 19 112
e 19 115
e 19 116
e 19 117
e 19 123
e 19 129
e 19 130
e 19 139
e 19 140
e 19 141
e 19 143
e 19 145
e 19 147
e 19 153
e 19 157
e 19 161
e 19 166
e 19 175
e 19 180
e 19 196
e 20 21
e 20 22
e 20 23
e 20 24
e 20 25
e 20 26
e 20 27
e 20 28
e 20 32
e 20 34
e 20 35
e 20 37
e 20 38
e 20 40
e 20 42
e 20 46
e 20 47
e 20 51
e 20 52
e 20 54
e 20 55
e 20 57
e 20 58
e 20 59
e 20 60
e 20 61
e 20 63
e 20 65
e 20 66
e 20 73
e 20 75
e 20 76
e 20 79
e 20 80
e 20 81
e 20 84
e 20 86
e 20 88
e 20 91
e 20 94
e 20 100
e 20 102
e 20 103
e 20 104
e 20 108
e 20 109
e 20 112
e 20 113
e 20 121
e 20 122
e 20 132
e 20 133
e 20 136
e 20 138
e 20 141
e 20 145
e 20 146
e 20 148
e 20 149
e 20 150
e 20 163
e 20 182
e 20 183
e 20 186
e 20 187
e 20 190
e 21 22
e 21 23
e 21 24
e 21 25
e 21 28
e 21 29
e 21 30
e 21 31
e 21 32
e 21 34
e 21 35
e 21 36
e 21 39
e 21 40
e 21 41
e 21 42
e 21 44
e 21 45
e 21 47
e 21 49
e 21 55
e 21 57
e 21 61
e 21 63
e 21 65
e 21 66
e 21 70
e 21 72
e 21 73
e 21 76
e 21 84
e 21 87
e 21 90
e 21 93
e 21 94
e 21 95
e 21 106
e 21 110
e 21 111
e 21 119
e 21 122
e 21 133
e 21 135
e 21 139
e 21 142
e 21 143
e 21 146
e 21 148
e 21 149
e 21 157
e 21 159
e 21 160
e 21 168
e 21 170
e 21 175
e 21 176
e 21 181
e 21 185
e 21 194
e 22 23
e 22 24
e 22 25
e 22 26
e 22 27
e 22 28
e 22 29
e 22 30
e 22 31
e 22 33
e 22 34
e 22 35
e 22 38
e 22 39
e 22 40
e 22 41
e 22 43
e 22 44
e 22 47
e 22 52
e 22 56
e 22 58
e 22 59
e 22 63
e 22 68
e 22 71
e 22 72
e 22 75
e 22 76
e 22 80
e 22 86
e 22 87
e 22 89
e 22 96
e 22 98
e 22 104
e 22 105
e 22 106
e 22 108
e 22 110
e 22 113
e 22 118
e 22 128
e 22 134
e 22 138
e 22 139
e 22 140
e 22 141
e 22 146
e 22 147
e 22 148
e 22 152
e 22 155
e 22 158
e 22 162
e 22 167
e 22 168
e 22 170
e 22 171
e 22 176
e 22 191
e 22 194
e 22 196
e 23 24
e 23 25
e 23 27
e 23 28
e 23 31
e 23 32
e 23 33
e 23 34
e 23 41
e 23 48
e 23 50
e 23 53
e 23 61
e 23 63
e 23 65
e 23 70
e 23 74
e 23 75
e 23 98
e 23 99
e 23 105
e 23 120
e 23 133
e 23 136
e 23 140
e 23 158
e 23 163
e 23 182
e 23 192
e 23 194
e 23 196
e 24 25
e 24 26
e 24 27
e 24 29
e 24 30
e 24 31
e 24 32
e 24 33
e 24 36
e 24 38
e 24 41
e 24 43
e 24 44
e 24 45
e 24 48
e 24 49
e 24 51
e 24 52
e 24 53
e 24 57
e 24 59
e 24 60
e 24 61
e 24 63
e 24 68
e 24 69
e 24 71
e 24 73
e 24 74
e 24 77
e 24 78
e 24 82
e 24 83
e 24 85
e 24 90
e 24 100
e 24 103
e 24 110
e 24 116
e 24 117
e 24 133
e 24 137
e 24 140
e 24 145
e 24 148
e 24 156
e 24 164
e 24 165
e 24 167
e 24 169
e 24 191
e 24 192
e 24 193
e 25 26
e 25 27
e 25 28
e 25 29
e 25 30
e 25 31
e 25 32
e 25 33
e 25 34
e 25 35
e 25 37
e 25 38
e 25 39
e 25 40
e 25 45
e 25 46
e 25 47
e 25 50
e 25 53
e 25 55
e 25 57
e 25 60
e 25 61
e 25 63
e 25 64
e 25 65
e 25 66
e 25 67
e 25 68
e 25 71
e 25 73
e 25 74
e 25 76
e 25 77
e 25 79
e 25 80
e 25 81
e 25 85
e 25 86
e 25 91
e 25 94
e 25 95
e 25 96
e 25 108
e 25 111
e 25 113
e 25 114
e 25 115
e 25 117
e 25 119
e 25 123
e 25 125
e 25 128
e 25 134
e 25 136
e 25 138
e 25 141
e 25 153
e 25 157
e 25 163
e 25 164
e 25 166
e 25 172
e 25 173
e 25 177
e 25 179
e 25 183
e 25 187
e 25 189
e 26 27
e 26 28
e 26 29
e 26 30
e 26 31
e 26 32
e 26 35
e 26 38
e 26 39
e 26 40
e 26 41
e 26 42
e 26 43
e 26 44
e 26 45
e 26 48
e 26 49
e 26 53
e 26 54
e 26 56
e 26 57
e 26 59
e 26 61
e 26 62
e 26 67
e 26 68
e 26 70
e 26 71
e 26 74
e 26 76
e 26 78
e 26 79
e 26 80
e 26 89
e 26 92
e 26 97
e 26 98
e 26 101
e 26 105
e 26 106
e 26 122
e 26 123
e 26 133
e 26 139
e 26 142
e 26 146
e 26 147
e 26 152
e 26 153
e 26 161
e 26 173
e 26 176
e 26 190
e 26 191
e 27 28
e 27 29
e 27 30
e 27 31
e 27 32
e 27 33
e 27 34
e 27 35
e 27 36
e 27 37
e 27 38
e 27 39
e 27 41
e 27 42
e 27 43
e 27 45
e 27 46
e 27 47
e 27 49
e 27 51
e 27 53
e 27 61
e 27 62
e 27 64
e 27 69
e 27 71
e 27 72
e 27 73
e 27 74
e 27 76
e 27 78
e 27 82
e 27 84
e 27 87
e 27 88
e 27 89
e 27 90
e 27 91
e 27 96
e 27 101
e 27 103
e 27 107
e 27 109
e 27 111
e 27 112
e 27 114
e 27 115
e 27 129
e 27 131
e 27 132
e 27 134
e 27 142
e 27 144
e 27 145
e 27 146
e 27 153
e 27 158
e 27 165
e 27 166
e 27 168
e 27 175
e 27 176
e 27 180
e 27 182
e 27 183
e 27 190
e 27 193
e 28 29
e 28 30
e 28 31
e 28 32
e 28 33
e 28 36
e 28 38
e 28 43
e 28 44
e 28 46
e 28 47
e 28 48
e 28 53
e 28 56
e 28 62
e 28 65
e 28 68
e 28 69
e 28 70
e 28 75
e 28 77
e 28 79
e 28 87
e 28 92
e 28 93
e 28 95
e 28 97
e 28 100
e 28 102
e 28 107
e 28 110
e 28 116
e 28 117
e 28 119
e 28 123
e 28 124
e 28 126
e 28 138
e 28 145
e 28 147
e 28 151
e 28 155
e 28 165
e 28 168
e 28 170
e 28 180
e 28 191
e 28 194
e 29 30
e 29 32
e 29 34
e 29 35
e 29 36
e 29 37
e 29 39
e 29 41
e 29 42
e 29 44
e 29 46
e 29 49
e 29 52
e 29 57
e 29 60
e 29 66
e 29 69
e 29 75
e 29 77
e 29 80
e 29 82
e 29 86
e 29 87
e 29 88
e 29 101
e 29 102
e 29 110
e 29 112
e 29 122
e 29 125
e 29 126
e 29 129
e 29 131
e 29 136
e 29 139
e 29 145
e 29 151
e 29 169
e 29 180
e 29 181
e 29 190
e 29 194
e 29 195
e 30 31
e 30 32
e 30 36
e 30 37
e 30 39
e 30 41
e 30 49
e 30 53
e 30 55
e 30 60
e 30 65
e 30 79
e 30 84
e 30 88
e 30 96
e 30 97
e 30 99
e 30 100
e 30 107
e 30 121
e 30 123
e 30 126
e 30 135
e 30 139
e 30 149
e 30 155
e 30 157
e 30 179
e 30 188
e 30 190
e 31 32
e 31 33
e 31 36
e 31 39
e 31 41
e 31 43
e 31 44
e 31 45
e 31 46
e 31 48
e 31 49
e 31 50
e 31 51
e 31 54
e 31 76
e 31 78
e 31 80
e 31 86
e 31 92
e 31 105
e 31 109
e 31 112
e 31 114
e 31 115
e 31 116
e 31 118
e 31 131
e 31 133
e 31 151
e 31 157
e 31 165
e 31 171
e 31 174
e 31 180
e 31 181
e 31 196
e 32 34
e 32 39
e 32 40
e 32 43
e 32 44
e 32 48
e 32 52
e 32 62
e 32 63
e 32 64
e 32 65
e 32 66
e 32 70
e 32 74
e 32 76
e 32 90
e 32 92
e 32 95
e 32 99
e 32 107
e 32 110
e 32 114
e 32 116
e 32 128
e 32 138
e 32 143
e 32 146
e 32 152
e 32 154
e 32 162
e 32 176
e 32 182
e 32 183
e 33 34
e 33 37
e 33 40
e 33 44
e 33 45
e 33 47
e 33 48
e 33 51
e 33 52
e 33 53
e 33 58
e 33 60
e 33 64
e 33 68
e 33 69
e 33 72
e 33 73
e 33 75
e 33 79
e 33 83
e 33 85
e 33 88
e 33 91
e 33 94
e 33 99
e 33 101
e 33 102
e 33 104
e 33 113
e 33 115
e 33 117
e 33 120
e 33 128
e 33 138
e 33 140
e 33 147
e 33 150
e 33 167
e 33 169
e 33 172
e 33 177
e 33 178
e 33 179
e 33 184
e 33 189
e 33 191
e 33 192
e 34 36
e 34 39
e 34 49
e 34 50
e 34 55
e 34 56
e 34 58
e 34 59
e 34 61
e 34 70
e 34 77
e 34 82
e 34 83
e 34 101
e 34 102
e 34 103
e 34 105
e 34 109
e 34 111
e 34 118
e 34 121
e 34 123
e 34 124
e 34 126
e 34 127
e 34 128
e 34 131
e 34 141
e 34 147
e 34 149
e 34 169
e 34 174
e 34 177
e 34 189
e 35 36
e 35 37
e 35 38
e 35 39
e 35 44
e 35 45
e 35 48
e 35 51
e 35 52
e 35 54
e 35 55
e 35 59
e 35 62
e 35 67
e 35 73
e 35 79
e 35 83
e 35 90
e 35 95
e 35 97
e 35 98
e 35 100
e 35 108
e 35 109
e 35 122
e 35 125
e 35 126
e 35 146
e 35 153
e 35 156
e 35 184
e 35 187
e 35 188
e 36 37
e 36 42
e 36 46
e 36 50
e 36 59
e 36 60
e 36 61
e 36 62
e 36 77
e 36 79
e 36 82
e 36 88
e 36 90
e 36 91
e 36 92
e 36 101
e 36 107
e 36 111
e 36 115
e 36 128
e 36 135
e 36 137
e 36 149
e 36 151
e 36 161
e 36 163
e 36 166
e 36 168
e 36 175
e 36 179
e 36 181
e 36 185
e 36 196
e 37 38
e 37 42
e 37 43
e 37 45
e 37 46
e 37 47
e 37 49
e 37 50
e 37 52
e 37 53
e 37 67
e 37 70
e 37 71
e 37 76
e 37 79
e 37 81
e 37 84
e 37 85
e 37 89
e 37 93
e 37 96
e 37 126
e 37 143
e 37 147
e 37 153
e 37 157
e 37 166
e 37 173
e 37 174
e 37 192
e 37 196
e 38 41
e 38 47
e 38 48
e 38 50
e 38 51
e 38 54
e 38 57
e 38 58
e 38 63
e 38 64
e 38 69
e 38 72
e 38 73
e 38 77
e 38 91
e 38 93
e 38 99
e 38 101
e 38 102
e 38 110
e 38 116
e 38 126
e 38 128
e 38 130
e 38 139
e 38 141
e 38 145
e 38 151
e 38 157
e 38 163
e 38 172
e 38 178
e 38 188
e 38 190
e 39 51
e 39 53
e 39 54
e 39 58
e 39 63
e 39 64
e 39 69
e 39 72
e 39 73
e 39 74
e 39 83
e 39 84
e 39 85
e 39 94
e 39 103
e 39 106
e 39 114
e 39 116
e 39 121
e 39 124
e 39 127
e 39 130
e 39 144
e 39 155
e 39 156
e 39 159
e 39 168
e 39 169
e 39 171
e 39 180
e 40 50
e 40 58
e 40 60
e 40 64
e 40 67
e 40 69
e 40 83
e 40 85
e 40 90
e 40 93
e 40 94
e 40 97
e 40 98
e 40 103
e 40 105
e 40 119
e 40 122
e 40 125
e 40 127
e 40 130
e 40 154
e 40 176
e 40 187
e 40 188
e 40 192
e 41 42
e 41 44
e 41 45
e 41 59
e 41 61
e 41 71
e 41 78
e 41 82
e 41 84
e 41 87
e 41 89
e 41 94
e 41 100
e 41 104
e 41 112
e 41 114
e 41 118
e 41 119
e 41 125
e 41 127
e 41 144
e 41 145
e 41 159
e 41 164
e 41 173
e 41 188
e 41 194
e 42 43
e 42 44
e 42 66
e 42 77
e 42 81
e 42 83
e 42 88
e 42 101
e 42 119
e 42 124
e 42 132
e 42 146
e 42 166
e 42 167
e 42 169
e 42 178
e 42 191
e 43 44
e 43 46
e 43 49
e 43 50
e 43 53
e 43 57
e 43 59
e 43 60
e 43 62
e 43 66
e 43 77
e 43 78
e 43 79
e 43 81
e 43 84
e 43 85
e 43 92
e 43 93
e 43 97
e 43 98
e 43 99
e 43 102
e 43 104
e 43 115
e 43 117
e 43 121
e 43 124
e 43 136
e 43 138
e 43 140
e 43 142
e 43 143
e 43 144
e 43 148
e 43 149
e 43 151
e 43 167
e 43 185
e 43 189
e 44 51
e 44 56
e 44 67
e 44 73
e 44 97
e 44 132
e 44 145
e 44 148
e 44 149
e 44 171
e 44 173
e 44 184
e 45 47
e 45 48
e 45 51
e 45 54
e 45 59
e 45 64
e 45 71
e 45 72
e 45 85
e 45 91
e 45 95
e 45 98
e 45 101
e 45 104
e 45 105
e 45 118
e 45 123
e 45 136
e 45 144
e 45 152
e 45 173
e 45 174
e 45 187
e 45 196
e 46 48
e 46 51
e 46 52
e 46 56
e 46 70
e 46 71
e 46 74
e 46 76
e 46 78
e 46 83
e 46 86
e 46 88
e 46 89
e 46 93
e 46 105
e 46 106
e 46 116
e 46 117
e 46 130
e 46 137
e 46 149
e 46 152
e 46 153
e 46 155
e 46 159
e 46 174
e 46 181
e 46 195
e 47 48
e 47 49
e 47 52
e 47 54
e 47 55
e 47 57
e 47 58
e 47 61
e 47 63
e 47 64
e 47 68
e 47 74
e 47 78
e 47 80
e 47 84
e 47 90
e 47 96
e 47 100
e 47 107
e 47 112
e 47 115
e 47 126
e 47 132
e 47 150
e 47 152
e 47 170
e 47 181
e 47 192
e 48 50
e 48 51
e 48 62
e 48 70
e 48 75
e 48 81
e 48 83
e 48 85
e 48 86
e 48 92
e 48 103
e 48 104
e 48 105
e 48 116
e 48 128
e 48 130
e 48 131
e 48 135
e 48 136
e 48 141
e 48 148
e 48 154
e 48 160
e 48 164
e 49 53
e 49 55
e 49 60
e 49 62
e 49 66
e 49 69
e 49 81
e 49 84
e 49 96
e 49 103
e 49 121
e 49 128
e 49 140
e 49 161
e 49 165
e 49 180
e 49 194
e 50 51
e 50 55
e 50 56
e 50 58
e 50 59
e 50 62
e 50 87
e 50 92
e 50 93
e 50 95
e 50 99
e 50 102
e 50 111
e 50 117
e 50 118
e 50 125
e 50 136
e 50 138
e 50 144
e 50 158
e 50 163
e 50 165
e 50 173
e 50 176
e 50 179
e 50 184
e 50 189
e 50 193
e 51 54
e 51 64
e 51 65
e 51 66
e 51 72
e 51 85
e 51 86
e 51 94
e 51 112
e 51 119
e 51 129
e 51 133
e 51 142
e 51 143
e 51 147
e 51 149
e 51 164
e 51 185
e 51 193
e 52 64
e 52 65
e 52 91
e 52 92
e 52 93
e 52 94
e 52 96
e 52 104
e 52 108
e 52 117
e 52 137
e 52 146
e 52 148
e 52 150
e 52 161
e 52 170
e 52 181
e 52 182
e 52 185
e 52 192
e 53 54
e 53 61
e 53 66
e 53 68
e 53 71
e 53 75
e 53 82
e 53 84
e 53 87
e 53 88
e 53 106
e 53 108
e 53 111
e 53 115
e 53 120
e 53 132
e 53 134
e 53 136
e 53 139
e 53 140
e 53 157
e 53 160
e 53 161
e 53 183
e 53 195
e 54 56
e 54 58
e 54 70
e 54 71
e 54 72
e 54 77
e 54 83
e 54 85
e 54 91
e 54 92
e 54 96
e 54 114
e 54 118
e 54 137
e 54 178
e 54 183
e 54 184
e 55 57
e 55 64
e 55 66
e 55 67
e 55 75
e 55 100
e 55 106
e 55 111
e 55 112
e 55 118
e 55 127
e 55 134
e 55 140
e 55 143
e 55 159
e 55 173
e 55 178
e 55 184
e 56 69
e 56 70
e 56 76
e 56 78
e 56 89
e 56 103
e 56 114
e 56 128
e 56 131
e 56 132
e 56 142
e 56 144
e 56 149
e 56 150
e 56 175
e 56 184
e 56 191
e 57 58
e 57 65
e 57 68
e 57 69
e 57 74
e 57 82
e 57 88
e 57 97
e 57 110
e 57 129
e 57 154
e 57 185
e 57 186
e 57 187
e 57 189
e 57 196
e 58 61
e 58 114
e 58 122
e 58 126
e 58 129
e 58 136
e 58 145
e 58 152
e 58 163
e 58 165
e 58 166
e 58 172
e 58 177
e 58 178
e 58 187
e 58 193
e 59 61
e 59 63
e 59 67
e 59 69
e 59 80
e 59 91
e 59 103
e 59 136
e 59 141
e 59 143
e 59 150
e 59 154
e 59 155
e 59 156
e 59 159
e 59 175
e 59 177
e 60 67
e 60 74
e 60 80
e 60 86
e 60 90
e 60 92
e 60 94
e 60 95
e 60 96
e 60 97
e 60 102
e 60 119
e 60 135
e 60 154
e 60 158
e 60 169
e 60 179
e 60 180
e 61 65
e 61 74
e 61 75
e 61 79
e 61 81
e 61 96
e 61 97
e 61 124
e 61 146
e 61 174
e 61 195
e 62 72
e 62 87
e 62 88
e 62 120
e 62 144
e 62 153
e 62 156
e 62 195
e 63 75
e 63 77
e 63 80
e 63 83
e 63 85
e 63 89
e 63 107
e 63 111
e 63 113
e 63 119
e 63 125
e 63 129
e 63 131
e 63 132
e 63 139
e 63 148
e 63 153
e 63 154
e 63 175
e 63 180
e 63 184
e 64 67
e 64 68
e 64 70
e 64 75
e 64 78
e 64 85
e 64 86
e 64 87
e 64 99
e 64 100
e 64 113
e 64 135
e 64 143
e 64 155
e 64 163
e 64 177
e 64 179
e 65 169
e 65 182
e 65 185
e 65 186
e 65 189
e 65 195
e 66 68
e 66 72
e 66 74
e 66 75
e 66 81
e 66 95
e 66 109
e 66 122
e 66 132
e 66 139
e 66 147
e 66 151
e 66 167
e 66 182
e 67 78
e 67 80
e 67 86
e 67 90
e 67 91
e 67 92
e 67 93
e 67 109
e 67 116
e 67 133
e 67 177
e 67 188
e 67 192
e 68 80
e 68 82
e 68 91
e 68 116
e 68 118
e 68 120
e 68 132
e 68 136
e 68 144
e 68 146
e 68 153
e 68 156
e 68 163
e 68 181
e 68 183
e 68 194
e 68 195
e 69 76
e 69 80
e 69 94
e 69 99
e 69 118
e 69 119
e 69 121
e 69 123
e 69 141
e 69 144
e 69 162
e 69 194
e 70 72
e 70 78
e 70 89
e 70 93
e 70 98
e 70 107
e 70 109
e 70 110
e 70 113
e 70 135
e 70 140
e 70 150
e 70 153
e 70 157
e 70 159
e 70 161
e 70 162
e 70 168
e 70 174
e 70 181
e 70 182
e 70 186
e 70 188
e 70 196
e 71 81
e 71 88
e 71 93
e 71 95
e 71 99
e 71 103
e 71 105
e 71 108
e 71 110
e 71 118
e 71 124
e 71 128
e 71 135
e 71 137
e 71 152
e 71 156
e 71 161
e 71 191
e 71 193
e 72 73
e 72 76
e 72 77
e 72 101
e 72 102
e 72 109
e 72 115
e 72 136
e 72 170
e 72 174
e 73 76
e 73 87
e 73 98
e 73 104
e 73 105
e 73 113
e 73 123
e 73 127
e 73 138
e 73 141
e 73 146
e 73 151
e 73 154
e 73 160
e 73 163
e 73 171
e 74 81
e 74 102
e 74 105
e 74 115
e 74 117
e 74 119
e 74 126
e 74 131
e 74 133
e 74 137
e 74 140
e 74 156
e 74 161
e 74 162
e 74 164
e 74 167
e 74 175
e 75 82
e 75 98
e 75 107
e 75 112
e 75 120
e 75 127
e 75 132
e 75 134
e 75 140
e 75 144
e 75 147
e 75 152
e 75 160
e 75 173
e 75 196
e 76 80
e 76 82
e 76 86
e 76 111
e 76 112
e 76 126
e 76 127
e 76 128
e 76 130
e 76 131
e 76 134
e 76 135
e 76 170
e 76 175
e 76 179
e 76 186
e 76 189
e 76 193
e 77 80
e 77 85
e 77 90
e 77 94
e 77 99
e 77 103
e 77 104
e 77 106
e 77 120
e 77 158
e 77 160
e 78 79
e 78 84
e 78 109
e 78 112
e 78 113
e 78 120
e 78 124
e 78 130
e 78 136
e 78 145
e 78 154
e 78 170
e 78 176
e 78 179
e 78 182
e 78 190
e 79 89
e 79 95
e 79 100
e 79 103
e 79 119
e 79 134
e 79 135
e 79 137
e 79 157
e 79 160
e 79 164
e 79 166
e 79 179
e 79 181
e 79 182
e 79 183
e 79 188
e 79 193
e 80 88
e 80 90
e 80 113
e 80 123
e 80 128
e 80 142
e 80 150
e 80 155
e 80 156
e 80 160
e 80 166
e 81 83
e 81 116
e 81 146
e 81 149
e 81 150
e 81 170
e 81 173
e 81 178
e 81 184
e 81 194
e 82 89
e 82 91
e 82 96
e 82 104
e 82 136
e 82 141
e 82 150
e 82 159
e 82 165
e 82 185
e 82 189
e 83 87
e 83 98
e 83 102
e 83 104
e 83 107
e 83 150
e 83 172
e 83 188
e 84 99
e 84 108
e 84 110
e 84 111
e 84 150
e 84 157
e 84 167
e 84 170
e 84 172
e 85 130
e 85 140
e 85 167
e 86 91
e 86 101
e 86 110
e 86 112
e 86 173
e 87 90
e 87 107
e 87 116
e 87 120
e 87 127
e 87 131
e 88 89
e 88 94
e 88 97
e 88 101
e 88 106
e 88 109
e 88 112
e 88 113
e 88 117
e 88 122
e 88 124
e 88 134
e 88 147
e 88 148
e 88 155
e 88 159
e 88 162
e 88 165
e 88 168
e 88 170
e 88 176
e 88 179
e 88 196
e 89 117
e 89 118
e 89 124
e 89 135
e 89 141
e 89 143
e 89 151
e 89 159
e 89 164
e 89 192
e 90 115
e 90 125
e 90 132
e 90 136
e 90 147
e 90 169
e 90 176
e 90 186
e 91 160
e 92 99
e 92 107
e 92 108
e 92 121
e 92 122
e 92 132
e 92 156
e 92 176
e 92 180
e 93 96
e 93 100
e 93 102
e 93 108
e 93 115
e 93 164
e 94 103
e 94 107
e 94 117
e 94 119
e 94 122
e 94 129
e 94 143
e 94 157
e 94 159
e 94 182
e 95 103
e 95 106
e 95 113
e 95 129
e 95 135
e 95 137
e 95 145
e 95 148
e 95 166
e 95 185
e 95 186
e 96 99
e 96 102
e 96 111
e 96 120
e 96 121
e 96 129
e 96 134
e 96 138
e 96 155
e 96 159
e 97 99
e 97 129
e 97 138
e 97 141
e 97 171
e 97 180
e 97 185
e 97 187
e 98 113
e 98 120
e 98 125
e 98 141
e 98 142
e 98 167
e 98 170
e 99 106
e 99 126
e 99 150
e 99 164
e 99 174
e 99 186
e 99 191
e 100 104
e 100 120
e 100 129
e 100 131
e 100 134
e 100 137
e 100 144
e 100 156
e 100 158
e 100 171
e 100 195
e 101 131
e 101 135
e 101 142
e 101 143
e 102 106
e 102 155
e 103 104
e 103 105
e 103 108
e 103 114
e 103 125
e 103 128
e 103 139
e 103 159
e 103 169
e 103 172
e 103 183
e 103 188
e 104 109
e 104 110
e 104 112
e 104 114
e 104 150
e 104 165
e 105 107
e 105 119
e 105 131
e 105 132
e 105 178
e 105 182
e 105 184
e 105 190
e 106 118
e 106 122
e 106 135
e 106 149
e 106 171
e 106 172
e 106 175
e 107 114
e 107 130
e 107 139
e 107 161
e 107 163
e 107 171
e 107 175
e 107 177
e 108 109
e 108 124
e 108 137
e 108 139
e 108 141
e 108 145
e 108 155
e 108 158
e 108 160
e 108 181
e 108 182
e 108 185
e 108 186
e 108 189
e 109 124
e 109 140
e 109 145
e 110 160
e 110 171
e 110 177
e 110 178
e 111 167
e 111 172
e 112 122
e 112 123
e 112 125
e 112 172
e 112 174
e 113 115
e 113 120
e 113 122
e 113 124
e 113 145
e 113 189
e 114 118
e 114 127
e 114 129
e 114 134
e 114 142
e 114 149
e 114 151
e 114 168
e 114 175
e 115 123
e 115 155
e 115 158
e 115 162
e 115 184
e 116 123
e 116 127
e 116 133
e 116 135
e 116 160
e 116 192
e 117 122
e 117 124
e 117 183
e 118 129
e 118 151
e 118 152
e 118 158
e 119 126
e 119 133
e 119 134
e 119 148
e 119 150
e 119 154
e 119 156
e 119 158
e 119 160
e 119 167
e 119 177
e 119 183
e 120 121
e 120 186
e 120 191
e 121 123
e 121 142
e 121 143
e 121 144
e 121 152
e 121 154
e 121 187
e 121 188
e 122 130
e 122 174
e 122 177
e 123 137
e 123 146
e 123 166
e 123 178
e 123 194
e 124 126
e 124 162
e 124 194
e 125 132
e 125 134
e 125 138
e 125 161
e 125 189
e 125 195
e 126 168
e 127 139
e 127 177
e 127 178
e 127 187
e 128 133
e 128 142
e 128 143
e 128 161
e 128 167
e 128 168
e 128 177
e 128 184
e 129 138
e 129 150
e 129 157
e 129 169
e 129 173
e 129 190
e 130 148
e 130 155
e 131 158
e 131 163
e 132 151
e 132 157
e 132 165
e 133 154
e 133 164
e 134 161
e 134 184
e 134 191
e 135 163
e 135 166
e 135 178
e 135 192
e 136 138
e 136 139
e 136 143
e 136 162
e 136 173
e 136 196
e 137 152
e 137 170
e 137 181
e 137 185
e 138 171
e 138 183
e 139 158
e 139 175
e 139 176
e 139 190
e 140 146
e 140 176
e 140 187
e 140 191
e 141 147
e 141 159
e 141 163
e 141 172
e 141 174
e 141 176
e 142 154
e 142 158
e 142 171
e 143 151
e 143 186
e 144 147
e 144 152
e 144 172
e 145 169
e 146 162
e 146 193
e 147 175
e 147 191
e 148 151
e 148 159
e 148 175
e 149 190
e 150 162
e 150 174
e 150 179
e 151 162
e 151 186
e 151 187
e 152 169
e 152 195
e 153 179
e 154 161
e 154 164
e 154 184
e 155 165
e 155 173
e 155 178
e 156 180
e 156 188
e 156 189
e 156 194
e 157 162
e 157 190
e 158 164
e 158 172
e 159 166
e 159 167
e 160 166
e 161 164
e 162 172
e 162 173
e 164 180
e 165 169
e 165 187
e 165 188
e 167 171
e 167 181
e 167 185
e 168 186
e 168 193
e 169 187
e 171 188
e 172 175
e 175 185
e 176 186
e 179 186
e 181 193
e 181 195
e 182 191
e 184 188
e 184 191
e 187 193
e 187 195
e 188 192
e 188 196
